logging:
Cal Parameter: OK
initial master model!!
initial sub model!
CPXPARAM_TimeLimit                               300
Tried aggregator 2 times.
MIP Presolve eliminated 168 rows and 127 columns.
MIP Presolve modified 177 coefficients.
Aggregator did 2 substitutions.
Reduced MIP has 20 rows, 29 columns, and 147 nonzeros.
Reduced MIP has 29 binaries, 0 generals, 0 SOSs, and 0 indicators.
Presolve time = 0.00 sec. (0.53 ticks)
Found incumbent of value 2.000000 after 0.00 sec. (0.71 ticks)
Probing fixed 29 vars, tightened 0 bounds.
Probing time = 0.00 sec. (0.03 ticks)
Tried aggregator 1 time.
MIP Presolve eliminated 20 rows and 29 columns.
All rows and columns eliminated.
Presolve time = 0.00 sec. (0.02 ticks)

Root node processing (before b&c):
  Real time             =    0.00 sec. (0.78 ticks)
Parallel b&c, 4 threads:
  Real time             =    0.00 sec. (0.00 ticks)
  Sync time (average)   =    0.00 sec.
  Wait time (average)   =    0.00 sec.
                          ------------
Total (root+branch&cut) =    0.00 sec. (0.78 ticks)
lastScore is 2.0
x 3,4,0  =  1
f 4,0  =  1
